RT is False
Default write of storage_offers_DA.csv just to have a file (but constraint should be inactive)
Reading model...
...model read.
creating competitive generators file...
...competitive generators recorded.
Loading data...
.. day-ahead data with real-time VRE data read.
Compiling instance...
...instance created.
Creating Offer Mitigation (model will solve as dispatch if TRUE)...
NOTE: storage offers will not be mitigated
...storage offer mitigation file created
Converting model to MPEC...
...converted
NOTE: initial MIP solve with only storage competitive to get feasible solution
Solving...

Welcome to IBM(R) ILOG(R) CPLEX(R) Interactive Optimizer 12.9.0.0
  with Simplex, Mixed Integer & Barrier Optimizers
5725-A06 5725-A29 5724-Y48 5724-Y49 5724-Y54 5724-Y55 5655-Y21
Copyright IBM Corp. 1988, 2019.  All Rights Reserved.

Type 'help' for a list of available commands.
Type 'help' followed by a command name for more
information on commands.

CPLEX> Logfile 'cplex.log' closed.
Logfile 'C:\Users\llavin\Desktop\test826\logs\tmpnm7m4l3j.cplex.log' open.
CPLEX> New value for parallel optimization mode: -1
CPLEX> New value for emphasis for MIP optimization: 1
CPLEX> New value for mixed integer optimality gap tolerance: 0.01
CPLEX> New value for integrality tolerance: 1e-12
CPLEX> New value for deterministic time limit in ticks: 75000
CPLEX> Problem 'C:\Users\llavin\Desktop\test826\logs\tmprn2lwpv3.pyomo.lp' read.
Read time = 0.23 sec. (13.92 ticks)
CPLEX> Problem name         : C:\Users\llavin\Desktop\test826\logs\tmprn2lwpv3.pyomo.lp
Objective sense      : Maximize
Variables            :   53809  [Nneg: 1,  Box: 22004,  Free: 4464,
                                 Binary: 27340]
Objective nonzeros   :    8973
Linear constraints   :  123253  [Less: 41346,  Greater: 59096,  Equal: 22811]
  Nonzeros           :  293282
  RHS nonzeros       :   67484

Variables            : Min LB: -5000.000        Max UB: 1000000.       
Objective nonzeros   : Min   : 0.008333333      Max   : 832.6333       
Linear constraints   :
  Nonzeros           : Min   : 0.008333333      Max   : 1000000.       
  RHS nonzeros       : Min   : 0.008333333      Max   : 1000000.       
CPLEX> CPXPARAM_Parallel                                -1
CPXPARAM_Emphasis_MIP                            1
CPXPARAM_DetTimeLimit                            75000
CPXPARAM_MIP_Tolerances_MIPGap                   0.01
CPXPARAM_MIP_Tolerances_Integrality              9.9999999999999998e-13
Tried aggregator 4 times.
MIP Presolve eliminated 88719 rows and 18972 columns.
MIP Presolve added 3393 rows and 0 columns.
MIP Presolve modified 24886 coefficients.
Aggregator did 13009 substitutions.
Reduced MIP has 24918 rows, 21269 columns, and 71117 nonzeros.
Reduced MIP has 8398 binaries, 0 generals, 0 SOSs, and 0 indicators.
Presolve time = 0.33 sec. (193.70 ticks)
Probing fixed 387 vars, tightened 4282 bounds.
Probing time = 0.08 sec. (19.34 ticks)
Tried aggregator 2 times.
MIP Presolve eliminated 873 rows and 774 columns.
MIP Presolve modified 3027 coefficients.
Aggregator did 35 substitutions.
Reduced MIP has 24010 rows, 20460 columns, and 68492 nonzeros.
Reduced MIP has 8011 binaries, 0 generals, 0 SOSs, and 0 indicators.
Presolve time = 0.11 sec. (87.42 ticks)
Probing fixed 0 vars, tightened 345 bounds.
Probing time = 0.16 sec. (23.29 ticks)
Clique table members: 44204.
MIP emphasis: integer feasibility.
MIP search method: dynamic search.
Parallel mode: opportunistic, using up to 32 threads.
Root relaxation solution time = 0.38 sec. (584.15 ticks)

        Nodes                                         Cuts/
   Node  Left     Objective  IInf  Best Integer    Best Bound    ItCnt     Gap

      0     0     3087.0475   110                   3087.0475     4945         
*     0+    0                         3040.0079     3087.0475             1.55%
      0     0     3087.0475     5     3040.0079       Cuts: 4     4960    1.55%
      0     0     3087.0475     4     3040.0079      Cuts: 18     4966    1.55%
*     0+    0                         3048.2951     3087.0475             1.27%
*     0+    0                         3052.8278     3087.0475             1.12%

Repeating presolve.
Tried aggregator 2 times.
MIP Presolve eliminated 12136 rows and 9321 columns.
MIP Presolve modified 17027 coefficients.
Aggregator did 136 substitutions.
Reduced MIP has 11738 rows, 11001 columns, and 35492 nonzeros.
Reduced MIP has 4029 binaries, 0 generals, 0 SOSs, and 0 indicators.
Presolve time = 0.09 sec. (51.91 ticks)
Probing fixed 310 vars, tightened 33755 bounds.
Probing time = 0.14 sec. (68.01 ticks)
Cover probing fixed 4 vars, tightened 1681 bounds.
Tried aggregator 5 times.
MIP Presolve eliminated 5433 rows and 5355 columns.
MIP Presolve modified 2941 coefficients.
Aggregator did 137 substitutions.
Reduced MIP has 6168 rows, 5509 columns, and 20319 nonzeros.
Reduced MIP has 1956 binaries, 0 generals, 0 SOSs, and 0 indicators.
Presolve time = 0.05 sec. (35.61 ticks)
Probing fixed 2 vars, tightened 2907 bounds.
Probing time = 0.05 sec. (15.87 ticks)
Tried aggregator 2 times.
MIP Presolve eliminated 77 rows and 76 columns.
MIP Presolve modified 1265 coefficients.
Aggregator did 2 substitutions.
Reduced MIP has 6089 rows, 5431 columns, and 20077 nonzeros.
Reduced MIP has 1930 binaries, 0 generals, 0 SOSs, and 0 indicators.
Presolve time = 0.01 sec. (15.04 ticks)
Represolve time = 0.45 sec. (231.99 ticks)
Probing fixed 19 vars, tightened 2126 bounds.
Probing time = 0.03 sec. (8.34 ticks)
Clique table members: 2331.
MIP emphasis: integer feasibility.
MIP search method: dynamic search.
Parallel mode: opportunistic, using up to 32 threads.
Root relaxation solution time = 0.09 sec. (95.22 ticks)

        Nodes                                         Cuts/
   Node  Left     Objective  IInf  Best Integer    Best Bound    ItCnt     Gap

*     0+    0                         3052.8278     3087.0475             1.12%
      0     0     3083.3965     8     3052.8278     3083.3965     6643    1.00%
      0     0     3064.8561    50     3052.8278      Cuts: 22     6702    0.39%

Flow cuts applied:  4
Mixed integer rounding cuts applied:  5
Gomory fractional cuts applied:  8

Root node processing (before b&c):
  Real time             =    3.27 sec. (2153.64 ticks)
Parallel b&c, 32 threads:
  Real time             =    0.00 sec. (0.00 ticks)
  Sync time (average)   =    0.00 sec.
  Wait time (average)   =    0.00 sec.
                          ------------
Total (root+branch&cut) =    3.27 sec. (2153.64 ticks)

Solution pool: 3 solutions saved.

MIP - Integer optimal, tolerance (0.01/1e-06):  Objective =  3.0528277951e+03
Current MIP best bound =  3.0648561251e+03 (gap = 12.0283, 0.39%)
Solution time =    3.28 sec.  Iterations = 6702  Nodes = 0 (1)
Deterministic time = 2153.79 ticks  (656.24 ticks/sec)

CPLEX> Incumbent solution written to file 'C:\Users\llavin\Desktop\test826\logs\tmportxm4tz.cplex.sol'.
CPLEX> NOTE: no warmstart specified for MIP iteration, default behavior is true
NOTE: resolving with all competitive generators using storage-only solution to warmstart
Solving...

Welcome to IBM(R) ILOG(R) CPLEX(R) Interactive Optimizer 12.9.0.0
  with Simplex, Mixed Integer & Barrier Optimizers
5725-A06 5725-A29 5724-Y48 5724-Y49 5724-Y54 5724-Y55 5655-Y21
Copyright IBM Corp. 1988, 2019.  All Rights Reserved.

Type 'help' for a list of available commands.
Type 'help' followed by a command name for more
information on commands.

CPLEX> Logfile 'cplex.log' closed.
Logfile 'C:\Users\llavin\Desktop\test826\logs\tmpuh0nfje2.cplex.log' open.
CPLEX> New value for parallel optimization mode: -1
CPLEX> New value for emphasis for MIP optimization: 1
CPLEX> New value for mixed integer optimality gap tolerance: 0.01
CPLEX> New value for integrality tolerance: 1e-12
CPLEX> New value for deterministic time limit in ticks: 75000
CPLEX> Problem 'C:\Users\llavin\Desktop\test826\logs\tmpcslc_arj.pyomo.lp' read.
Read time = 0.22 sec. (13.94 ticks)
CPLEX> MIP start file 'C:\Users\llavin\Desktop\test826\logs\tmp0rsj3u_n.cplex.mst' read.
CPLEX> Problem name         : C:\Users\llavin\Desktop\test826\logs\tmpcslc_arj.pyomo.lp
Objective sense      : Maximize
Variables            :   54529  [Nneg: 1,  Box: 22724,  Free: 4464,
                                 Binary: 27340]
Objective nonzeros   :    9669
Linear constraints   :  123253  [Less: 41346,  Greater: 59096,  Equal: 22811]
  Nonzeros           :  293282
  RHS nonzeros       :   67484

Variables            : Min LB: -5000.000        Max UB: 1000000.       
Objective nonzeros   : Min   : 0.008333333      Max   : 786.0583       
Linear constraints   :
  Nonzeros           : Min   : 0.008333333      Max   : 1000000.       
  RHS nonzeros       : Min   : 0.008333333      Max   : 1000000.       
CPLEX> CPXPARAM_Parallel                                -1
CPXPARAM_Emphasis_MIP                            1
CPXPARAM_DetTimeLimit                            75000
CPXPARAM_MIP_Tolerances_MIPGap                   0.01
CPXPARAM_MIP_Tolerances_Integrality              9.9999999999999998e-13
Warning:  No solution found from 1 MIP starts.
Retaining values of one MIP start for possible repair.
Tried aggregator 4 times.
MIP Presolve eliminated 88719 rows and 19692 columns.
MIP Presolve added 3393 rows and 0 columns.
MIP Presolve modified 24886 coefficients.
Aggregator did 13009 substitutions.
Reduced MIP has 24918 rows, 21269 columns, and 71117 nonzeros.
Reduced MIP has 8398 binaries, 0 generals, 0 SOSs, and 0 indicators.
Presolve time = 0.34 sec. (194.11 ticks)
Probing fixed 387 vars, tightened 4282 bounds.
Probing time = 0.06 sec. (19.34 ticks)
Tried aggregator 2 times.
MIP Presolve eliminated 873 rows and 774 columns.
MIP Presolve modified 3027 coefficients.
Aggregator did 35 substitutions.
Reduced MIP has 24010 rows, 20460 columns, and 68492 nonzeros.
Reduced MIP has 8011 binaries, 0 generals, 0 SOSs, and 0 indicators.
Presolve time = 0.11 sec. (87.43 ticks)
Probing fixed 0 vars, tightened 345 bounds.
Probing time = 0.14 sec. (23.29 ticks)
Clique table members: 44204.
MIP emphasis: integer feasibility.
MIP search method: dynamic search.
Parallel mode: opportunistic, using up to 32 threads.
Root relaxation solution time = 0.42 sec. (623.54 ticks)

        Nodes                                         Cuts/
   Node  Left     Objective  IInf  Best Integer    Best Bound    ItCnt     Gap

      0     0   148345.7617   312                 148345.7617     5453         
      0     0   145197.1156   208                   Cuts: 192     5654         
      0     0   144498.5072   207                    Cuts: 57     5712         
      0     0   144433.2435   205                    Cuts: 20     5734         
Repair heuristic found nothing.
      0    40   135125.0073   179                    Cuts: 14     6248         
Elapsed time = 4.13 sec. (1838.49 ticks, tree = 0.06 MB, solutions = 0)
    733   361   137177.4108   163                 140918.6090     7244         
   1161   980   127732.7476   180                 140918.6090    12435         
   1667  1511   109485.8945   143                 140918.6090    22517         
   2234  1731    45506.1172    81                 140918.6090    27670         
   2862  2082     8863.4875    57                 140918.6090    39502         
   3537  2620     1974.0412    58                 140918.6090    50672         
   4170  2931   124566.9292   164                 140918.6090    58903         
   4809  3548   122260.7017   143                 140918.6090    82548         
   5342  3669    15857.5454   125                 140918.6090    87533         
   7722  5883   -17416.3310    37                 140918.6090   145911         
Elapsed time = 21.17 sec. (4945.82 ticks, tree = 103.24 MB, solutions = 0)
   9824  6951    88565.8382   127                 140918.6090   180645         
  12206  8750   118408.6678   156                 140918.6090   228344         
  14310 10105    infeasible                       140918.6090   263542         
  16805 11837   -25111.4484   117                 140918.6090   331149         
  19233 12568   105639.9342   128                 140918.6090   353763         
  21799 17327   -46406.8494   122                 140918.6090   477446         
  24706 16462   -15516.8084   132                 140918.6090   454317         
  27219 18738    infeasible                       140918.6090   511743         
  29369 22568    91952.9180   132                 140918.6090   621562         
  31573 22598    infeasible                       140918.6090   623445         
Elapsed time = 164.80 sec. (14485.90 ticks, tree = 1040.07 MB, solutions = 0)
  34070 24361    50396.9497   115                 140918.6090   679602         
  36768 25701   119521.7595   153                 140869.6735   719648         
  39324 27944    infeasible                       140869.6735   789249         
  41726 33099    70975.2584   131                 140629.4363   938930         
  43874 34547  -182845.5382   155                 140062.4236   979576         
  46239 33831  -676309.0560   131                 140011.0723   961930         
  48735 35990  -244228.4065   129                 140011.0723  1023338         
  51040 37252     2765.5737   121                 140011.0723  1060465         
  53300 40524   113265.0754   131                 140011.0723  1167421         
  55425 42392    86235.8310   146                 140011.0723  1225048         
Elapsed time = 336.39 sec. (24028.58 ticks, tree = 1181.67 MB, solutions = 0)
  57400 44902   -35377.0996   127                 139083.2846  1305807         
  59498 44963   107112.2696   134                 137147.1181  1309390         
  61850 47279   -77537.4205   128                 135540.0830  1386514         
  64266 50489   107370.3210   124                 135283.4904  1501602         
  66573 50870  -290657.6233   141                 135283.4904  1516368         
  68667 51501   -89281.9322   120                 134824.2192  1539344         
  70702 54390    infeasible                       134824.2192  1640151         
  72618 58099    40632.1148   130                 134824.2192  1787330         
  74637 58314    infeasible                       134824.2192  1799236         
  76856 59865   109366.6801   152                 134824.2192  1882660         
Elapsed time = 534.61 sec. (33568.01 ticks, tree = 1523.87 MB, solutions = 0)
  79128 59919   106553.1095   136                 134824.2192  1885329         
  81134 61435   106583.4316   119                 134824.2192  1957847         
  83087 65250    69925.7493   140                 134824.2192  2124203         
  85104 67006    81106.1770   146                 134824.2192  2211811         
  87139 65917    80581.0814   130                 134824.2192  2158436         
  89239 67560    50270.2210   116                 134824.2192  2238829         
  91520 70155    infeasible                       134824.2192  2353540         
  93956 70643    68838.7471   133                 134824.2192  2370154         
  96295 72740  -373861.5398   142                 134824.2192  2449701         
  98415 74677    65963.8999    94                 134824.2192  2534348         
Elapsed time = 785.36 sec. (43107.42 ticks, tree = 1885.85 MB, solutions = 0)
 100335 76181    84443.3969   135                 127555.9689  2604754         
 102286 77433    infeasible                       127555.9689  2664436         
 104235 79828    67524.6345   107                 126282.1855  2790981         
 106292 79315  -416411.4893   107                 126206.1113  2766166         
 108441 82595  -1.66389e+07   137                 126206.1113  2926419         
 110607 84063    71452.0042   145                 126206.1113  2989428         
 113079 85641    93664.4238   126                 126206.1113  3047682         
 115353 86425   106470.2615   127                 126206.1113  3079364         
 117688 87284    39420.6797   117                 126206.1113  3115932         
 119847 89961  -151314.3331    94                 126206.1113  3226408         
Elapsed time = 1043.38 sec. (52647.72 ticks, tree = 1979.06 MB, solutions = 0)
 121937 88950   -91797.6577   103                 126206.1113  3183404         
 123964 93668  -343846.8356   149                 126206.1113  3366943         
 125942 93077    infeasible                       126206.1113  3343444         
 127938 94904    75463.4454    99                 126206.1113  3418856         
 129941 95780    93967.9258   127                 126206.1113  3454038         
 132074 98535    85130.4733   106                 126206.1113  3572458         
 134330 98472    86930.0240   125                 126206.1113  3570237         
 136537 100703   -51359.9502    94                 126206.1113  3675813         
 138698 99881    infeasible                       126206.1113  3637702         
 140738 103726  -411987.1707   115                 126206.1113  3831198         
Elapsed time = 1304.33 sec. (62189.06 ticks, tree = 2074.89 MB, solutions = 0)
Nodefile size = 23.08 MB (10.83 MB after compression)
 142677 106845    78158.1328   125                 126206.1113  4008951         
 144625 105921  -298620.7677    73                 126206.1113  3959333         
 146414 106803    56498.4935   117                 126206.1113  4008850         
 148324 109525    56891.4619   145                 126206.1113  4172392         
 150344 109906    infeasible                       126206.1113  4204856         
 152234 111587    39051.5864   162                 126206.1113  4329224         
 154177 112473     8012.6247   115                 126206.1113  4382325         
 156057 114142    78440.9622   119                 126206.1113  4492993         
 158090 116074    65026.4183   111                 126206.1113  4623262         
 160255 115600    21239.9687   109                 126206.1113  4590225         
Elapsed time = 1474.27 sec. (71731.94 ticks, tree = 2387.65 MB, solutions = 0)
Nodefile size = 336.66 MB (150.50 MB after compression)
 162321 118193  -382090.8309   147                 126206.1113  4760430         
 164348 117893    74821.7418   125                 126206.1113  4743013         
 166334 120165   -50376.9733   126                 126206.1113  4871882         

Cover cuts applied:  4
Implied bound cuts applied:  7
Flow cuts applied:  179
Mixed integer rounding cuts applied:  19
Gomory fractional cuts applied:  11

Root node processing (before b&c):
  Real time             =    2.73 sec. (1811.28 ticks)
Parallel b&c, 32 threads:
  Real time             = 1544.97 sec. (73311.27 ticks)
  Sync time (average)   =  168.56 sec.
  Wait time (average)   =    0.00 sec.
                          ------------
Total (root+branch&cut) = 1547.70 sec. (75122.55 ticks)


MIP - Deterministic time limit exceeded, no integer solution.
Current MIP best bound =  1.2620611125e+05 (gap is infinite)
Solution time = 1547.74 sec.  Iterations = 5010833  Nodes = 167215 (122911)
Deterministic time = 75122.71 ticks  (48.54 ticks/sec)

CPLEX> CPLEX Error  1217: No solution exists.
No file written.
CPLEX> gap is infinite, so writing 0
Exporting results... 
